# Solution for model r10_t18_m5_6
# Finished Task: 16 / 18
# Makespan: 618.0, Total Distance: 952.0, Total Time: 0.1024
# R O S F
0 0 13 0.0 0.0
1 1 16 0.0 0.0
2 2 11 0.0 0.0
3 3 25 0.0 0.0
4 4 14 0.0 0.0
5 5 24 0.0 0.0
6 6 -1 0.0 0.0
7 7 -1 0.0 0.0
8 8 -1 0.0 0.0
9 9 -1 0.0 0.0
10 2 -1 521.0 559.0
11 2 18 228.0 250.0
12 -1 -1 -1.0 -1.0
13 0 17 119.0 147.0
14 4 15 107.0 142.0
15 4 -1 342.0 368.0
16 1 23 270.0 306.0
17 0 22 345.0 376.0
18 2 10 400.0 423.0
19 -1 -1 -1.0 -1.0
20 3 26 347.0 377.0
21 5 -1 391.0 427.0
22 0 27 488.0 521.0
23 1 -1 456.0 480.0
24 5 21 186.0 222.0
25 3 20 306.0 330.0
26 3 -1 526.0 547.0
27 0 -1 598.0 618.0
